\ENCODING=ISO-8859-1
\Problem name: 

Minimize
 obj: y1 + y2 + y3 + y4 + y5 + y6 + y7 + y8 + y9 + y10 + y11 + y12
Subject To
 c1:  x1 + x2 + x3 + x4  = 1000
 c2:  x5 + x6 + x7 + x8  = 850
 c3:  x9 + x10 + x11 + x12  = 1250
 c4:  x1 + x5 + x9  = 900
 c5:  x2 + x6 + x10  = 1200
 c6:  x3 + x7 + x11  = 600
 c7:  x4 + x8 + x12  = 400
 c8:  - x1 + 200 lambda_2 + 400 lambda_3 + 900 lambda_4  = 0
 c9:  - y1 + 24000 lambda_2 + 40000 lambda_3 + 65000 lambda_4  = 0
 c10: lambda_1 + lambda_2 + lambda_3 + lambda_4  = 1
 c11: - x2 + 200 lambda_6 + 400 lambda_7 + 1000 lambda_8  = 0
 c12: - y2 + 24000 lambda_6 + 40000 lambda_7 + 70000 lambda_8  = 0
 c13: lambda_5 + lambda_6 + lambda_7 + lambda_8  = 1
 c14: - x3 + 200 lambda_10 + 400 lambda_11 + 600 lambda_12  = 0
 c15: - y3 + 24000 lambda_10 + 40000 lambda_11 + 50000 lambda_12  = 0
 c16: lambda_9 + lambda_10 + lambda_11 + lambda_12  = 1
 c17: - x4 + 200 lambda_14 + 400 lambda_15 + 400 lambda_16  = 0
 c18: - y4 + 24000 lambda_14 + 40000 lambda_15 + 40000 lambda_16  = 0
 c19: lambda_13 + lambda_14 + lambda_15 + lambda_16  = 1
 c20: - x5 + 200 lambda_18 + 400 lambda_19 + 850 lambda_20  = 0
 c21: - y5 + 24000 lambda_18 + 40000 lambda_19 + 62500 lambda_20  = 0
 c22: lambda_17 + lambda_18 + lambda_19 + lambda_20  = 1
 c23: - x6 + 200 lambda_22 + 400 lambda_23 + 850 lambda_24  = 0
 c24: - y6 + 24000 lambda_22 + 40000 lambda_23 + 62500 lambda_24  = 0
 c25: lambda_21 + lambda_22 + lambda_23 + lambda_24  = 1
 c26: - x7 + 200 lambda_26 + 400 lambda_27 + 600 lambda_28  = 0
 c27: - y7 + 24000 lambda_26 + 40000 lambda_27 + 50000 lambda_28  = 0
 c28: lambda_25 + lambda_26 + lambda_27 + lambda_28  = 1
 c29: - x8 + 200 lambda_30 + 400 lambda_31 + 400 lambda_32  = 0
 c30: - y8 + 24000 lambda_30 + 40000 lambda_31 + 40000 lambda_32  = 0
 c31: lambda_29 + lambda_30 + lambda_31 + lambda_32  = 1
 c32: - x9 + 200 lambda_34 + 400 lambda_35 + 900 lambda_36  = 0
 c33: - y9 + 24000 lambda_34 + 40000 lambda_35 + 65000 lambda_36  = 0
 c34: lambda_33 + lambda_34 + lambda_35 + lambda_36  = 1
 c35: - x10 + 200 lambda_38 + 400 lambda_39 + 1200 lambda_40  = 0
 c36: - y10 + 24000 lambda_38 + 40000 lambda_39 + 80000 lambda_40  = 0
 c37: lambda_37 + lambda_38 + lambda_39 + lambda_40  = 1
 c38: - x11 + 200 lambda_42 + 400 lambda_43 + 600 lambda_44  = 0
 c39: - y11 + 24000 lambda_42 + 40000 lambda_43 + 50000 lambda_44  = 0
 c40: lambda_41 + lambda_42 + lambda_43 + lambda_44  = 1
 c41: - x12 + 200 lambda_46 + 400 lambda_47 + 400 lambda_48  = 0
 c42: - y12 + 24000 lambda_46 + 40000 lambda_47 + 40000 lambda_48  = 0
 c43: lambda_45 + lambda_46 + lambda_47 + lambda_48  = 1
SOS
 s1:  S2 ::  lambda_1 : 0  lambda_2 : 200  lambda_3 : 400  lambda_4 : 901
 s3:  S2 ::  lambda_5 : 0  lambda_6 : 200  lambda_7 : 400  lambda_8 : 1001
 s5:  S2 ::  lambda_9 : 0  lambda_10 : 200  lambda_11 : 400  lambda_12 : 601
 s7:  S2 ::  lambda_13 : 0  lambda_14 : 200  lambda_15 : 400  lambda_16 : 401
 s9:  S2 ::  lambda_17 : 0  lambda_18 : 200  lambda_19 : 400  lambda_20 : 851
 s11: S2 ::  lambda_21 : 0  lambda_22 : 200  lambda_23 : 400  lambda_24 : 851
 s13: S2 ::  lambda_25 : 0  lambda_26 : 200  lambda_27 : 400  lambda_28 : 601
 s15: S2 ::  lambda_29 : 0  lambda_30 : 200  lambda_31 : 400  lambda_32 : 401
 s17: S2 ::  lambda_33 : 0  lambda_34 : 200  lambda_35 : 400  lambda_36 : 901
 s19: S2 ::  lambda_37 : 0  lambda_38 : 200  lambda_39 : 400  lambda_40 : 1201
 s21: S2 ::  lambda_41 : 0  lambda_42 : 200  lambda_43 : 400  lambda_44 : 601
 s23: S2 ::  lambda_45 : 0  lambda_46 : 200  lambda_47 : 400  lambda_48 : 401
End
